<instance format="XCSP3" type="COP">
  <variables>
    <array id="x" size="[26]"> 0..25 </array>
    <array id="d" size="[26][26]"> 0..39 41..51 53 54 56 57 59 60 62 64 65 67..69 71..78 80 84..86 89 91 92 94 97..104 107 111..114 116 118 119 122 125 126 129 132 138 139 142 144 146 148..151 153 157 159 160 163 165 171 175 177 180 181 183 184 186..188 190 193 194 196..199 204 207 209 211..213 218 220 229 230 239 244 247..250 257 265 270 272 278 284 286 292 297 298 302 309 313 314 316 326 332 335 338 344 348 359 367 370 372 378 381 386 391 394 398 400 407 419 426 432 443 463 471 473 479 480 496 507 512 523 525 529 534 539 548 567 575 581 590 591 595 596 601 626 639 664 687 701 714 747 769 787 802 941 975 1008 1029 1038 1045 1132 1153 1176 1186 1232 1251 1300 1311 1432 1458 1624 1889 2067 2100 2158 2329 2729 3100 4501 4754 </array>
  </variables>
  <constraints>
    <allDifferent> x[] </allDifferent>
    <group>
      <extension>
        <list> %0 %1 %2 </list>
        <supports> (0,1,348)(0,2,316)(0,3,74)(0,4,12)(0,5,181)(0,6,338)(0,7,309)(0,8,35)(0,9,3)(0,10,84)(0,11,714)(0,12,367)(0,13,1153)(0,14,7)(0,15,71)(0,16,0)(0,17,687)(0,18,432)(0,19,507)(0,20,975)(0,21,38)(0,22,6)(0,23,8)(0,24,7)(0,25,15)(1,0,175)(1,2,0)(1,3,4)(1,4,1300)(1,5,12)(1,6,41)(1,7,18)(1,8,183)(1,9,6)(1,10,3)(1,11,102)(1,12,2)(1,13,7)(1,14,84)(1,15,0)(1,16,0)(1,17,150)(1,18,84)(1,19,54)(1,20,148)(1,21,2)(1,22,13)(1,23,0)(1,24,1)(1,25,11)(2,0,19)(2,1,0)(2,3,9)(2,4,12)(2,5,0)(2,6,1)(2,7,3100)(2,8,3)(2,9,1)(2,10,209)(2,11,9)(2,12,3)(2,13,1)(2,14,22)(2,15,0)(2,16,0)(2,17,4)(2,18,2)(2,19,3)(2,20,1)(2,21,0)(2,22,2)(2,23,0)(2,24,0)(2,25,0)(3,0,575)(3,1,10)(3,2,5)(3,4,2729)(3,5,10)(3,6,10)(3,7,6)(3,8,1186)(3,9,0)(3,10,4)(3,11,48)(3,12,46)(3,13,30)(3,14,103)(3,15,11)(3,16,0)(3,17,102)(3,18,36)(3,19,34)(3,20,160)(3,21,2)(3,22,14)(3,23,0)(3,24,3)(3,25,1)(4,0,56)(4,1,265)(4,2,165)(4,3,249)(4,5,142)(4,6,391)(4,7,398)(4,8,2329)(4,9,4)(4,10,132)(4,11,747)(4,12,479)(4,13,4754)(4,14,32)(4,15,51)(4,16,3)(4,17,4501)(4,18,1311)(4,19,512)(4,20,326)(4,21,26)(4,22,111)(4,23,43)(4,24,6)(4,25,68)(5,0,190)(5,1,3)(5,2,0)(5,3,10)(5,4,313)(5,6,31)(5,7,4)(5,8,91)(5,9,2)(5,10,3)(5,11,76)(5,12,2)(5,13,16)(5,14,104)(5,15,5)(5,16,1)(5,17,163)(5,18,30)(5,19,257)(5,20,45)(5,21,2)(5,22,1)(5,23,0)(5,24,1)(5,25,16)(6,0,187)(6,1,6)(6,2,0)(6,3,4)(6,4,1889)(6,5,9)(6,7,2)(6,8,138)(6,9,3)(6,10,33)(6,11,126)(6,12,7)(6,13,41)(6,14,39)(6,15,0)(6,16,0)(6,17,198)(6,18,199)(6,19,149)(6,20,100)(6,21,2)(6,22,1)(6,23,0)(6,24,5)(6,25,10)(7,0,626)(7,1,11)(7,2,3)(7,3,5)(7,4,1232)(7,5,12)(7,6,5)(7,8,207)(7,9,2)(7,10,26)(7,11,230)(7,12,125)(7,13,204)(7,14,132)(7,15,1)(7,16,0)(7,17,596)(7,18,113)(7,19,596)(7,20,107)(7,21,5)(7,22,67)(7,23,0)(7,24,4)(7,25,12)(8,0,107)(8,1,50)(8,2,1029)(8,3,149)(8,4,2067)(8,5,53)(8,6,471)(8,7,157)(8,9,2)(8,10,151)(8,11,370)(8,12,292)(8,13,2100)(8,14,220)(8,15,18)(8,16,3)(8,17,250)(8,18,1038)(8,19,1008)(8,20,25)(8,21,65)(8,22,2)(8,23,4)(8,24,0)(8,25,42)(9,0,171)(9,1,0)(9,2,0)(9,3,0)(9,4,125)(9,5,0)(9,6,0)(9,7,0)(9,8,0)(9,10,0)(9,11,0)(9,12,0)(9,13,1)(9,14,12)(9,15,0)(9,16,0)(9,17,0)(9,18,0)(9,19,1)(9,20,28)(9,21,0)(9,22,0)(9,23,0)(9,24,0)(9,25,0)(10,0,286)(10,1,4)(10,2,2)(10,3,0)(10,4,297)(10,5,11)(10,6,13)(10,7,7)(10,8,53)(10,9,0)(10,11,118)(10,12,1)(10,13,11)(10,14,247)(10,15,4)(10,16,0)(10,17,113)(10,18,32)(10,19,218)(10,20,116)(10,21,1)(10,22,4)(10,23,0)(10,24,1)(10,25,3)(11,0,473)(11,1,80)(11,2,23)(11,3,99)(11,4,802)(11,5,49)(11,6,64)(11,7,13)(11,8,787)(11,9,2)(11,10,33)(11,12,27)(11,13,43)(11,14,126)(11,15,11)(11,16,0)(11,17,9)(11,18,239)(11,19,332)(11,20,186)(11,21,12)(11,22,1)(11,23,0)(11,24,28)(11,25,21)(12,0,378)(12,1,41)(12,2,3)(12,3,2)(12,4,567)(12,5,9)(12,6,5)(12,7,5)(12,8,581)(12,9,0)(12,10,5)(12,11,23)(12,13,4)(12,14,101)(12,15,80)(12,16,0)(12,17,1)(12,18,44)(12,19,86)(12,20,101)(12,21,0)(12,22,6)(12,23,0)(12,24,0)(12,25,0)(13,0,407)(13,1,56)(13,2,36)(13,3,1458)(13,4,1176)(13,5,112)(13,6,1045)(13,7,69)(13,8,534)(13,9,9)(13,10,171)(13,11,59)(13,12,57)(13,14,184)(13,15,13)(13,16,0)(13,17,21)(13,18,496)(13,19,701)(13,20,194)(13,21,24)(13,22,36)(13,23,1)(13,24,5)(13,25,159)(14,0,16)(14,1,68)(14,2,196)(14,3,111)(14,4,6)(14,5,60)(14,6,56)(14,7,119)(14,8,7)(14,9,7)(14,10,35)(14,11,344)(14,12,193)(14,13,769)(14,15,73)(14,16,0)(14,17,590)(14,18,157)(14,19,114)(14,20,26)(14,21,17)(14,22,48)(14,23,3)(14,24,7)(14,25,122)(15,0,188)(15,1,0)(15,2,0)(15,3,5)(15,4,111)(15,5,43)(15,6,0)(15,7,25)(15,8,107)(15,9,0)(15,10,2)(15,11,75)(15,12,2)(15,13,1)(15,14,146)(15,16,0)(15,17,391)(15,18,13)(15,19,42)(15,20,44)(15,21,0)(15,22,0)(15,23,0)(15,24,0)(15,25,0)(16,0,0)(16,1,0)(16,2,0)(16,3,0)(16,4,1)(16,5,0)(16,6,0)(16,7,0)(16,8,0)(16,9,0)(16,10,0)(16,11,0)(16,12,0)(16,13,0)(16,14,0)(16,15,0)(16,17,1)(16,18,0)(16,19,0)(16,20,16)(16,21,0)(16,22,0)(16,23,0)(16,24,0)(16,25,0)(17,0,539)(17,1,180)(17,2,75)(17,3,426)(17,4,1251)(17,5,119)(17,6,211)(17,7,129)(17,8,548)(17,9,12)(17,10,212)(17,11,190)(17,12,122)(17,13,229)(17,14,367)(17,15,41)(17,16,0)(17,18,443)(17,19,601)(17,20,314)(17,21,20)(17,22,77)(17,23,2)(17,24,3)(17,25,94)(18,0,272)(18,1,84)(18,2,1132)(18,3,18)(18,4,941)(18,5,46)(18,6,77)(18,7,51)(18,8,664)(18,9,10)(18,10,72)(18,11,47)(18,12,50)(18,13,9)(18,14,372)(18,15,278)(18,16,0)(18,17,62)(18,19,1432)(18,20,92)(18,21,42)(18,22,46)(18,23,0)(18,24,19)(18,25,18)(19,0,381)(19,1,36)(19,2,5)(19,3,6)(19,4,2158)(19,5,29)(19,6,38)(19,7,85)(19,8,595)(19,9,3)(19,10,20)(19,11,160)(19,12,21)(19,13,24)(19,14,139)(19,15,5)(19,16,1)(19,17,302)(19,18,419)(19,20,197)(19,21,8)(19,22,98)(19,23,0)(19,24,8)(19,25,248)(20,0,35)(20,1,64)(20,2,213)(20,3,35)(20,4,144)(20,5,386)(20,6,94)(20,7,26)(20,8,10)(20,9,1)(20,10,38)(20,11,62)(20,12,270)(20,13,1624)(20,14,1)(20,15,56)(20,16,0)(20,17,426)(20,18,463)(20,19,284)(20,21,13)(20,22,9)(20,23,4)(20,24,0)(20,25,12)(21,0,22)(21,1,1)(21,2,0)(21,3,1)(21,4,523)(21,5,0)(21,6,0)(21,7,0)(21,8,97)(21,9,0)(21,10,0)(21,11,0)(21,12,0)(21,13,0)(21,14,525)(21,15,1)(21,16,0)(21,17,1)(21,18,0)(21,19,2)(21,20,1)(21,22,4)(21,23,0)(21,24,0)(21,25,0)(22,0,298)(22,1,1)(22,2,0)(22,3,1)(22,4,591)(22,5,0)(22,6,0)(22,7,2)(22,8,480)(22,9,14)(22,10,0)(22,11,1)(22,12,1)(22,13,5)(22,14,153)(22,15,0)(22,16,1)(22,17,0)(22,18,4)(22,19,0)(22,20,67)(22,21,0)(22,23,0)(22,24,0)(22,25,0)(23,0,5)(23,1,0)(23,2,1)(23,3,0)(23,4,6)(23,5,0)(23,6,0)(23,7,0)(23,8,15)(23,9,0)(23,10,1)(23,11,0)(23,12,0)(23,13,0)(23,14,2)(23,15,14)(23,16,0)(23,17,0)(23,18,0)(23,19,7)(23,20,3)(23,21,0)(23,22,0)(23,24,1)(23,25,1)(24,0,0)(24,1,1)(24,2,1)(24,3,2)(24,4,10)(24,5,0)(24,6,1)(24,7,1)(24,8,1)(24,9,0)(24,10,4)(24,11,0)(24,12,30)(24,13,8)(24,14,3)(24,15,9)(24,16,0)(24,17,3)(24,18,13)(24,19,1)(24,20,0)(24,21,0)(24,22,1)(24,23,1)(24,25,0)(25,0,37)(25,1,1)(25,2,1)(25,3,2)(25,4,400)(25,5,6)(25,6,10)(25,7,2)(25,8,177)(25,9,1)(25,10,5)(25,11,15)(25,12,3)(25,13,8)(25,14,19)(25,15,6)(25,16,0)(25,17,1)(25,18,7)(25,19,78)(25,20,529)(25,21,4)(25,22,101)(25,23,0)(25,24,1) </supports>
      </extension>
      <args> x[0..1] d[0][1] </args>
      <args> x[0] x[2] d[0][2] </args>
      <args> x[0] x[3] d[0][3] </args>
      <args> x[0] x[4] d[0][4] </args>
      <args> x[0] x[5] d[0][5] </args>
      <args> x[0] x[6] d[0][6] </args>
      <args> x[0] x[7] d[0][7] </args>
      <args> x[0] x[8] d[0][8] </args>
      <args> x[0] x[9] d[0][9] </args>
      <args> x[0] x[10] d[0][10] </args>
      <args> x[0] x[11] d[0][11] </args>
      <args> x[0] x[12] d[0][12] </args>
      <args> x[0] x[13] d[0][13] </args>
      <args> x[0] x[14] d[0][14] </args>
      <args> x[0] x[15] d[0][15] </args>
      <args> x[0] x[16] d[0][16] </args>
      <args> x[0] x[17] d[0][17] </args>
      <args> x[0] x[18] d[0][18] </args>
      <args> x[0] x[19] d[0][19] </args>
      <args> x[0] x[20] d[0][20] </args>
      <args> x[0] x[21] d[0][21] </args>
      <args> x[0] x[22] d[0][22] </args>
      <args> x[0] x[23] d[0][23] </args>
      <args> x[0] x[24] d[0][24] </args>
      <args> x[0] x[25] d[0][25] </args>
      <args> x[1..2] d[1][2] </args>
      <args> x[1] x[3] d[1][3] </args>
      <args> x[1] x[4] d[1][4] </args>
      <args> x[1] x[5] d[1][5] </args>
      <args> x[1] x[6] d[1][6] </args>
      <args> x[1] x[7] d[1][7] </args>
      <args> x[1] x[8] d[1][8] </args>
      <args> x[1] x[9] d[1][9] </args>
      <args> x[1] x[10] d[1][10] </args>
      <args> x[1] x[11] d[1][11] </args>
      <args> x[1] x[12] d[1][12] </args>
      <args> x[1] x[13] d[1][13] </args>
      <args> x[1] x[14] d[1][14] </args>
      <args> x[1] x[15] d[1][15] </args>
      <args> x[1] x[16] d[1][16] </args>
      <args> x[1] x[17] d[1][17] </args>
      <args> x[1] x[18] d[1][18] </args>
      <args> x[1] x[19] d[1][19] </args>
      <args> x[1] x[20] d[1][20] </args>
      <args> x[1] x[21] d[1][21] </args>
      <args> x[1] x[22] d[1][22] </args>
      <args> x[1] x[23] d[1][23] </args>
      <args> x[1] x[24] d[1][24] </args>
      <args> x[1] x[25] d[1][25] </args>
      <args> x[2..3] d[2][3] </args>
      <args> x[2] x[4] d[2][4] </args>
      <args> x[2] x[5] d[2][5] </args>
      <args> x[2] x[6] d[2][6] </args>
      <args> x[2] x[7] d[2][7] </args>
      <args> x[2] x[8] d[2][8] </args>
      <args> x[2] x[9] d[2][9] </args>
      <args> x[2] x[10] d[2][10] </args>
      <args> x[2] x[11] d[2][11] </args>
      <args> x[2] x[12] d[2][12] </args>
      <args> x[2] x[13] d[2][13] </args>
      <args> x[2] x[14] d[2][14] </args>
      <args> x[2] x[15] d[2][15] </args>
      <args> x[2] x[16] d[2][16] </args>
      <args> x[2] x[17] d[2][17] </args>
      <args> x[2] x[18] d[2][18] </args>
      <args> x[2] x[19] d[2][19] </args>
      <args> x[2] x[20] d[2][20] </args>
      <args> x[2] x[21] d[2][21] </args>
      <args> x[2] x[22] d[2][22] </args>
      <args> x[2] x[23] d[2][23] </args>
      <args> x[2] x[24] d[2][24] </args>
      <args> x[2] x[25] d[2][25] </args>
      <args> x[3..4] d[3][4] </args>
      <args> x[3] x[5] d[3][5] </args>
      <args> x[3] x[6] d[3][6] </args>
      <args> x[3] x[7] d[3][7] </args>
      <args> x[3] x[8] d[3][8] </args>
      <args> x[3] x[9] d[3][9] </args>
      <args> x[3] x[10] d[3][10] </args>
      <args> x[3] x[11] d[3][11] </args>
      <args> x[3] x[12] d[3][12] </args>
      <args> x[3] x[13] d[3][13] </args>
      <args> x[3] x[14] d[3][14] </args>
      <args> x[3] x[15] d[3][15] </args>
      <args> x[3] x[16] d[3][16] </args>
      <args> x[3] x[17] d[3][17] </args>
      <args> x[3] x[18] d[3][18] </args>
      <args> x[3] x[19] d[3][19] </args>
      <args> x[3] x[20] d[3][20] </args>
      <args> x[3] x[21] d[3][21] </args>
      <args> x[3] x[22] d[3][22] </args>
      <args> x[3] x[23] d[3][23] </args>
      <args> x[3] x[24] d[3][24] </args>
      <args> x[3] x[25] d[3][25] </args>
      <args> x[4..5] d[4][5] </args>
      <args> x[4] x[6] d[4][6] </args>
      <args> x[4] x[7] d[4][7] </args>
      <args> x[4] x[8] d[4][8] </args>
      <args> x[4] x[9] d[4][9] </args>
      <args> x[4] x[10] d[4][10] </args>
      <args> x[4] x[11] d[4][11] </args>
      <args> x[4] x[12] d[4][12] </args>
      <args> x[4] x[13] d[4][13] </args>
      <args> x[4] x[14] d[4][14] </args>
      <args> x[4] x[15] d[4][15] </args>
      <args> x[4] x[16] d[4][16] </args>
      <args> x[4] x[17] d[4][17] </args>
      <args> x[4] x[18] d[4][18] </args>
      <args> x[4] x[19] d[4][19] </args>
      <args> x[4] x[20] d[4][20] </args>
      <args> x[4] x[21] d[4][21] </args>
      <args> x[4] x[22] d[4][22] </args>
      <args> x[4] x[23] d[4][23] </args>
      <args> x[4] x[24] d[4][24] </args>
      <args> x[4] x[25] d[4][25] </args>
      <args> x[5..6] d[5][6] </args>
      <args> x[5] x[7] d[5][7] </args>
      <args> x[5] x[8] d[5][8] </args>
      <args> x[5] x[9] d[5][9] </args>
      <args> x[5] x[10] d[5][10] </args>
      <args> x[5] x[11] d[5][11] </args>
      <args> x[5] x[12] d[5][12] </args>
      <args> x[5] x[13] d[5][13] </args>
      <args> x[5] x[14] d[5][14] </args>
      <args> x[5] x[15] d[5][15] </args>
      <args> x[5] x[16] d[5][16] </args>
      <args> x[5] x[17] d[5][17] </args>
      <args> x[5] x[18] d[5][18] </args>
      <args> x[5] x[19] d[5][19] </args>
      <args> x[5] x[20] d[5][20] </args>
      <args> x[5] x[21] d[5][21] </args>
      <args> x[5] x[22] d[5][22] </args>
      <args> x[5] x[23] d[5][23] </args>
      <args> x[5] x[24] d[5][24] </args>
      <args> x[5] x[25] d[5][25] </args>
      <args> x[6..7] d[6][7] </args>
      <args> x[6] x[8] d[6][8] </args>
      <args> x[6] x[9] d[6][9] </args>
      <args> x[6] x[10] d[6][10] </args>
      <args> x[6] x[11] d[6][11] </args>
      <args> x[6] x[12] d[6][12] </args>
      <args> x[6] x[13] d[6][13] </args>
      <args> x[6] x[14] d[6][14] </args>
      <args> x[6] x[15] d[6][15] </args>
      <args> x[6] x[16] d[6][16] </args>
      <args> x[6] x[17] d[6][17] </args>
      <args> x[6] x[18] d[6][18] </args>
      <args> x[6] x[19] d[6][19] </args>
      <args> x[6] x[20] d[6][20] </args>
      <args> x[6] x[21] d[6][21] </args>
      <args> x[6] x[22] d[6][22] </args>
      <args> x[6] x[23] d[6][23] </args>
      <args> x[6] x[24] d[6][24] </args>
      <args> x[6] x[25] d[6][25] </args>
      <args> x[7..8] d[7][8] </args>
      <args> x[7] x[9] d[7][9] </args>
      <args> x[7] x[10] d[7][10] </args>
      <args> x[7] x[11] d[7][11] </args>
      <args> x[7] x[12] d[7][12] </args>
      <args> x[7] x[13] d[7][13] </args>
      <args> x[7] x[14] d[7][14] </args>
      <args> x[7] x[15] d[7][15] </args>
      <args> x[7] x[16] d[7][16] </args>
      <args> x[7] x[17] d[7][17] </args>
      <args> x[7] x[18] d[7][18] </args>
      <args> x[7] x[19] d[7][19] </args>
      <args> x[7] x[20] d[7][20] </args>
      <args> x[7] x[21] d[7][21] </args>
      <args> x[7] x[22] d[7][22] </args>
      <args> x[7] x[23] d[7][23] </args>
      <args> x[7] x[24] d[7][24] </args>
      <args> x[7] x[25] d[7][25] </args>
      <args> x[8..9] d[8][9] </args>
      <args> x[8] x[10] d[8][10] </args>
      <args> x[8] x[11] d[8][11] </args>
      <args> x[8] x[12] d[8][12] </args>
      <args> x[8] x[13] d[8][13] </args>
      <args> x[8] x[14] d[8][14] </args>
      <args> x[8] x[15] d[8][15] </args>
      <args> x[8] x[16] d[8][16] </args>
      <args> x[8] x[17] d[8][17] </args>
      <args> x[8] x[18] d[8][18] </args>
      <args> x[8] x[19] d[8][19] </args>
      <args> x[8] x[20] d[8][20] </args>
      <args> x[8] x[21] d[8][21] </args>
      <args> x[8] x[22] d[8][22] </args>
      <args> x[8] x[23] d[8][23] </args>
      <args> x[8] x[24] d[8][24] </args>
      <args> x[8] x[25] d[8][25] </args>
      <args> x[9..10] d[9][10] </args>
      <args> x[9] x[11] d[9][11] </args>
      <args> x[9] x[12] d[9][12] </args>
      <args> x[9] x[13] d[9][13] </args>
      <args> x[9] x[14] d[9][14] </args>
      <args> x[9] x[15] d[9][15] </args>
      <args> x[9] x[16] d[9][16] </args>
      <args> x[9] x[17] d[9][17] </args>
      <args> x[9] x[18] d[9][18] </args>
      <args> x[9] x[19] d[9][19] </args>
      <args> x[9] x[20] d[9][20] </args>
      <args> x[9] x[21] d[9][21] </args>
      <args> x[9] x[22] d[9][22] </args>
      <args> x[9] x[23] d[9][23] </args>
      <args> x[9] x[24] d[9][24] </args>
      <args> x[9] x[25] d[9][25] </args>
      <args> x[10..11] d[10][11] </args>
      <args> x[10] x[12] d[10][12] </args>
      <args> x[10] x[13] d[10][13] </args>
      <args> x[10] x[14] d[10][14] </args>
      <args> x[10] x[15] d[10][15] </args>
      <args> x[10] x[16] d[10][16] </args>
      <args> x[10] x[17] d[10][17] </args>
      <args> x[10] x[18] d[10][18] </args>
      <args> x[10] x[19] d[10][19] </args>
      <args> x[10] x[20] d[10][20] </args>
      <args> x[10] x[21] d[10][21] </args>
      <args> x[10] x[22] d[10][22] </args>
      <args> x[10] x[23] d[10][23] </args>
      <args> x[10] x[24] d[10][24] </args>
      <args> x[10] x[25] d[10][25] </args>
      <args> x[11..12] d[11][12] </args>
      <args> x[11] x[13] d[11][13] </args>
      <args> x[11] x[14] d[11][14] </args>
      <args> x[11] x[15] d[11][15] </args>
      <args> x[11] x[16] d[11][16] </args>
      <args> x[11] x[17] d[11][17] </args>
      <args> x[11] x[18] d[11][18] </args>
      <args> x[11] x[19] d[11][19] </args>
      <args> x[11] x[20] d[11][20] </args>
      <args> x[11] x[21] d[11][21] </args>
      <args> x[11] x[22] d[11][22] </args>
      <args> x[11] x[23] d[11][23] </args>
      <args> x[11] x[24] d[11][24] </args>
      <args> x[11] x[25] d[11][25] </args>
      <args> x[12..13] d[12][13] </args>
      <args> x[12] x[14] d[12][14] </args>
      <args> x[12] x[15] d[12][15] </args>
      <args> x[12] x[16] d[12][16] </args>
      <args> x[12] x[17] d[12][17] </args>
      <args> x[12] x[18] d[12][18] </args>
      <args> x[12] x[19] d[12][19] </args>
      <args> x[12] x[20] d[12][20] </args>
      <args> x[12] x[21] d[12][21] </args>
      <args> x[12] x[22] d[12][22] </args>
      <args> x[12] x[23] d[12][23] </args>
      <args> x[12] x[24] d[12][24] </args>
      <args> x[12] x[25] d[12][25] </args>
      <args> x[13..14] d[13][14] </args>
      <args> x[13] x[15] d[13][15] </args>
      <args> x[13] x[16] d[13][16] </args>
      <args> x[13] x[17] d[13][17] </args>
      <args> x[13] x[18] d[13][18] </args>
      <args> x[13] x[19] d[13][19] </args>
      <args> x[13] x[20] d[13][20] </args>
      <args> x[13] x[21] d[13][21] </args>
      <args> x[13] x[22] d[13][22] </args>
      <args> x[13] x[23] d[13][23] </args>
      <args> x[13] x[24] d[13][24] </args>
      <args> x[13] x[25] d[13][25] </args>
      <args> x[14..15] d[14][15] </args>
      <args> x[14] x[16] d[14][16] </args>
      <args> x[14] x[17] d[14][17] </args>
      <args> x[14] x[18] d[14][18] </args>
      <args> x[14] x[19] d[14][19] </args>
      <args> x[14] x[20] d[14][20] </args>
      <args> x[14] x[21] d[14][21] </args>
      <args> x[14] x[22] d[14][22] </args>
      <args> x[14] x[23] d[14][23] </args>
      <args> x[14] x[24] d[14][24] </args>
      <args> x[14] x[25] d[14][25] </args>
      <args> x[15..16] d[15][16] </args>
      <args> x[15] x[17] d[15][17] </args>
      <args> x[15] x[18] d[15][18] </args>
      <args> x[15] x[19] d[15][19] </args>
      <args> x[15] x[20] d[15][20] </args>
      <args> x[15] x[21] d[15][21] </args>
      <args> x[15] x[22] d[15][22] </args>
      <args> x[15] x[23] d[15][23] </args>
      <args> x[15] x[24] d[15][24] </args>
      <args> x[15] x[25] d[15][25] </args>
      <args> x[16..17] d[16][17] </args>
      <args> x[16] x[18] d[16][18] </args>
      <args> x[16] x[19] d[16][19] </args>
      <args> x[16] x[20] d[16][20] </args>
      <args> x[16] x[21] d[16][21] </args>
      <args> x[16] x[22] d[16][22] </args>
      <args> x[16] x[23] d[16][23] </args>
      <args> x[16] x[24] d[16][24] </args>
      <args> x[16] x[25] d[16][25] </args>
      <args> x[17..18] d[17][18] </args>
      <args> x[17] x[19] d[17][19] </args>
      <args> x[17] x[20] d[17][20] </args>
      <args> x[17] x[21] d[17][21] </args>
      <args> x[17] x[22] d[17][22] </args>
      <args> x[17] x[23] d[17][23] </args>
      <args> x[17] x[24] d[17][24] </args>
      <args> x[17] x[25] d[17][25] </args>
      <args> x[18..19] d[18][19] </args>
      <args> x[18] x[20] d[18][20] </args>
      <args> x[18] x[21] d[18][21] </args>
      <args> x[18] x[22] d[18][22] </args>
      <args> x[18] x[23] d[18][23] </args>
      <args> x[18] x[24] d[18][24] </args>
      <args> x[18] x[25] d[18][25] </args>
      <args> x[19..20] d[19][20] </args>
      <args> x[19] x[21] d[19][21] </args>
      <args> x[19] x[22] d[19][22] </args>
      <args> x[19] x[23] d[19][23] </args>
      <args> x[19] x[24] d[19][24] </args>
      <args> x[19] x[25] d[19][25] </args>
      <args> x[20..21] d[20][21] </args>
      <args> x[20] x[22] d[20][22] </args>
      <args> x[20] x[23] d[20][23] </args>
      <args> x[20] x[24] d[20][24] </args>
      <args> x[20] x[25] d[20][25] </args>
      <args> x[21..22] d[21][22] </args>
      <args> x[21] x[23] d[21][23] </args>
      <args> x[21] x[24] d[21][24] </args>
      <args> x[21] x[25] d[21][25] </args>
      <args> x[22..23] d[22][23] </args>
      <args> x[22] x[24] d[22][24] </args>
      <args> x[22] x[25] d[22][25] </args>
      <args> x[23..24] d[23][24] </args>
      <args> x[23] x[25] d[23][25] </args>
      <args> x[24..25] d[24][25] </args>
    </group>
  </constraints>
  <objectives>
    <minimize type="sum">
      <list> d[0][1..25] d[1][2..25] d[2][3..25] d[3][4..25] d[4][5..25] d[5][6..25] d[6][7..25] d[7][8..25] d[8][9..25] d[9][10..25] d[10][11..25] d[11][12..25] d[12][13..25] d[13][14..25] d[14][15..25] d[15][16..25] d[16][17..25] d[17][18..25] d[18][19..25] d[19][20..25] d[20][21..25] d[21][22..25] d[22][23..25] d[23][24..25] d[24][25] </list>
      <coeffs> 66 66 66 66 53 53 53 53 53 73 53 53 53 66 53 53 53 53 85 73 73 73 73 53 53 66 66 66 53 53 53 53 53 53 73 53 53 66 53 53 53 53 73 85 73 73 73 53 53 66 66 53 53 53 53 53 53 53 73 53 66 53 53 53 53 73 73 85 73 73 53 53 66 53 53 53 53 53 53 53 53 73 73 53 53 53 53 73 73 73 85 85 53 53 53 53 53 53 53 53 53 53 53 73 53 53 53 53 73 73 73 85 85 53 53 66 66 66 66 53 53 53 53 53 73 73 53 53 53 53 53 53 53 85 85 66 66 66 53 53 53 53 53 73 73 53 53 53 53 53 53 53 85 85 66 66 53 53 53 53 53 66 53 73 53 53 53 53 53 53 73 73 66 53 53 53 53 53 66 53 53 73 53 53 53 53 53 73 73 53 53 53 53 53 66 53 53 53 53 53 53 53 53 73 73 53 53 53 66 53 53 53 53 73 73 73 73 73 53 53 53 53 66 53 53 53 53 73 73 73 73 73 53 53 53 66 53 53 53 53 73 73 73 73 73 53 53 66 53 53 53 53 73 73 73 73 73 53 53 53 53 53 53 73 73 73 73 73 53 53 66 53 53 53 53 53 53 53 73 73 53 53 53 53 53 53 53 73 73 53 53 53 53 53 53 73 73 53 53 53 53 53 73 73 73 73 73 73 53 53 73 73 73 53 53 73 73 53 53 66 53 53 53 53 66 </coeffs>
    </minimize>
  </objectives>
</instance>
